NAME: n30q1000A.tsp, 30 nodes, semilla 0
COMMENT: Problema aleatorio de norma euclidea
DIMENSION: 30
CAPACITY: 1000
EDGE_WEIGHT_TYPE: EUC_2D
NODE_COORD_SECTION
1   0.0000   0.0000
2 220.0000 -461.0000
3 -62.0000 -261.0000
4 298.0000 356.0000
5 -214.0000 -134.0000
6 113.0000 -49.0000
7 -399.0000 354.0000
8 -218.0000 -357.0000
9 422.0000  38.0000
10 -214.0000 446.0000
11 181.0000 498.0000
12 392.0000 477.0000
13 407.0000 156.0000
14 -176.0000 -42.0000
15 -259.0000 382.0000
16 -221.0000 226.0000
17  91.0000 -53.0000
18  88.0000 341.0000
19 -262.0000 408.0000
20 118.0000 112.0000
21 368.0000 -43.0000
22 379.0000  34.0000
23 388.0000 -276.0000
24  85.0000  98.0000
25 -388.0000 -287.0000
26 -433.0000  79.0000
27 -95.0000 130.0000
28   6.0000 -220.0000
29 150.0000 -111.0000
30 -323.0000 -170.0000
DISPLAY_DATA_SECTION:
 1  250  250
 2  360   19
 3  219  119
 4  399  428
 5  143  183
 6  306  225
 7   50  427
 8  141   71
 9  461  269
10  143  473
11  340  499
12  446  488
13  453  328
14  162  229
15  120  441
16  139  363
17  295  223
18  294  420
19  119  454
20  309  306
21  434  228
22  439  267
23  444  112
24  292  299
25   56  106
26   33  289
27  202  315
28  253  140
29  325  194
30   88  165
DEMAND_SECTION
1 -8
2 -1
3 -8
4 -5
5 -3
6 0
7 -7
8 -5
9 10
10 1
11 3
12 4
13 -2
14 -4
15 -9
16 -1
17 4
18 -5
19 8
20 3
21 8
22 -1
23 10
24 -5
25 7
26 -3
27 -1
28 -2
29 2
30 10
EOF